c This is QMaxSAT 2017 based on 14.07
c This is Glucose 3.0
c This is MiniSat 2.2.0
c WARNING: for repeatability, setting FPU to use double precision
c card = mrwto, comp = 0, pmodel = 0, narr = 28, mct = 76, verb = 0
cr firstCPXsol 0 0 0
c top = 189219
c |  Number of variables:    21218                                            |
c |  Number of clauses:      1772231                                          |
c |  Weight of hard clauses: 189219                                           |
c |  Number of soft clauses: 273000                                           |
c |  Number of unit soft clauses: 0                                           |
c |  Maximum Cardinality (by unit): 8875496      (0           )               |
c last restart ## conflicts  :  0 6650 
o 732 | cpuTime 1.15578 s
c Sum of weights = 316982
c A number of soft clauses remained = 9750
c MRWTO encoding for Pseudo-Boolean Constraints
c sizeMax=732
c No.0 Divisor=10	generated by pow1
c No.1 Divisor=10	generated by pow1
c No.2 Divisor=10	generated by pow1
c p0= 10	p1= 10	p2= 10	
c number of digits = 4
c linkingVar[0].size = 10, linkingVar[1].size = 10, linkingVar[2].size = 8, linkingVar[3].size = 1, 
c Pseudo-Boolean Constraints: 174625 variables and 1354302 clauses
c Sum of weights = 316982
c A number of soft clauses remained = 9750
c MRWTO encoding for Pseudo-Boolean Constraints
c sizeMax=732
c No.0 Divisor=10	generated by pow1
c No.1 Divisor=10	generated by pow1
c No.2 Divisor=10	generated by pow1
c p0= 10	p1= 10	p2= 10	
c number of digits = 4
c linkingVar[0].size = 10, linkingVar[1].size = 10, linkingVar[2].size = 8, linkingVar[3].size = 1, 
c Pseudo-Boolean Constraints: 174625 variables and 1354302 clauses
c Sum of weights = 316982
c A number of soft clauses remained = 9750
c MRWTO encoding for Pseudo-Boolean Constraints
c sizeMax=732
c No.0 Divisor=10	generated by pow1
c No.1 Divisor=10	generated by pow1
c No.2 Divisor=10	generated by pow1
c p0= 10	p1= 10	p2= 10	
c number of digits = 4
c linkingVar[0].size = 10, linkingVar[1].size = 10, linkingVar[2].size = 8, linkingVar[3].size = 1, 
c Pseudo-Boolean Constraints: 174625 variables and 1354302 clauses
c Sum of weights = 316982
c A number of soft clauses remained = 9750
c MRWTO encoding for Pseudo-Boolean Constraints
c sizeMax=732
c No.0 Divisor=10	generated by pow1
c No.1 Divisor=10	generated by pow1
c No.2 Divisor=10	generated by pow1
c p0= 10	p1= 10	p2= 10	
c number of digits = 4
c linkingVar[0].size = 10, linkingVar[1].size = 10, linkingVar[2].size = 8, linkingVar[3].size = 1, 
c Pseudo-Boolean Constraints: 174625 variables and 1354302 clauses
c Sum of weights = 316982
c A number of soft clauses remained = 9750
c MRWTO encoding for Pseudo-Boolean Constraints
c sizeMax=732
c No.0 Divisor=10	generated by pow1
c No.1 Divisor=10	generated by pow1
c No.2 Divisor=10	generated by pow1
c p0= 10	p1= 10	p2= 10	
c number of digits = 4
c linkingVar[0].size = 10, linkingVar[1].size = 10, linkingVar[2].size = 8, linkingVar[3].size = 1, 
c Pseudo-Boolean Constraints: 174625 variables and 1354302 clauses
c Sum of weights = 316982
c A number of soft clauses remained = 9750
c MRWTO encoding for Pseudo-Boolean Constraints
c sizeMax=732
c No.0 Divisor=10	generated by pow1
c No.1 Divisor=10	generated by pow1
c No.2 Divisor=10	generated by pow1
c p0= 10	p1= 10	p2= 10	
c number of digits = 4
c linkingVar[0].size = 10, linkingVar[1].size = 10, linkingVar[2].size = 8, linkingVar[3].size = 1, 
c Pseudo-Boolean Constraints: 174625 variables and 1354302 clauses
c Sum of weights = 316982
c A number of soft clauses remained = 9750
c MRWTO encoding for Pseudo-Boolean Constraints
c sizeMax=732
c No.0 Divisor=10	generated by pow1
c No.1 Divisor=10	generated by pow1
c No.2 Divisor=10	generated by pow1
c p0= 10	p1= 10	p2= 10	
c number of digits = 4
c linkingVar[0].size = 10, linkingVar[1].size = 10, linkingVar[2].size = 8, linkingVar[3].size = 1, 
c Pseudo-Boolean Constraints: 174625 variables and 1354302 clauses
c Sum of weights = 316982
c A number of soft clauses remained = 9750
c MRWTO encoding for Pseudo-Boolean Constraints
c sizeMax=732
c No.0 Divisor=10	generated by pow1
c No.1 Divisor=10	generated by pow1
c No.2 Divisor=10	generated by pow1
c p0= 10	p1= 10	p2= 10	
c number of digits = 4
c linkingVar[0].size = 10, linkingVar[1].size = 10, linkingVar[2].size = 8, linkingVar[3].size = 1, 
c Pseudo-Boolean Constraints: 174625 variables and 1354302 clauses
c Sum of weights = 316982
c A number of soft clauses remained = 9750
c MRWTO encoding for Pseudo-Boolean Constraints
c sizeMax=732
c No.0 Divisor=10	generated by pow1
c No.1 Divisor=10	generated by pow1
c No.2 Divisor=10	generated by pow1
c p0= 10	p1= 10	p2= 10	
c number of digits = 4
c linkingVar[0].size = 10, linkingVar[1].size = 10, linkingVar[2].size = 8, linkingVar[3].size = 1, 
c Pseudo-Boolean Constraints: 174625 variables and 1354302 clauses
c Sum of weights = 316982
c A number of soft clauses remained = 9750
c MRWTO encoding for Pseudo-Boolean Constraints
c sizeMax=732
c No.0 Divisor=10	generated by pow1
c No.1 Divisor=10	generated by pow1
c No.2 Divisor=10	generated by pow1
c p0= 10	p1= 10	p2= 10	
c number of digits = 4
c linkingVar[0].size = 10, linkingVar[1].size = 10, linkingVar[2].size = 8, linkingVar[3].size = 1, 
c Pseudo-Boolean Constraints: 174625 variables and 1354302 clauses
c Sum of weights = 316982
c A number of soft clauses remained = 9750
c MRWTO encoding for Pseudo-Boolean Constraints
c sizeMax=732
c No.0 Divisor=10	generated by pow1
c No.1 Divisor=10	generated by pow1
c No.2 Divisor=10	generated by pow1
c p0= 10	p1= 10	p2= 10	
c number of digits = 4
c linkingVar[0].size = 10, linkingVar[1].size = 10, linkingVar[2].size = 8, linkingVar[3].size = 1, 
c Pseudo-Boolean Constraints: 174625 variables and 1354302 clauses
c Sum of weights = 316982
c A number of soft clauses remained = 9750
c MRWTO encoding for Pseudo-Boolean Constraints
c sizeMax=732
c No.0 Divisor=10	generated by pow1
c No.1 Divisor=10	generated by pow1
c No.2 Divisor=10	generated by pow1
c p0= 10	p1= 10	p2= 10	
c number of digits = 4
c linkingVar[0].size = 10, linkingVar[1].size = 10, linkingVar[2].size = 8, linkingVar[3].size = 1, 
c Pseudo-Boolean Constraints: 174625 variables and 1354302 clauses
c Sum of weights = 316982
c A number of soft clauses remained = 9750
c MRWTO encoding for Pseudo-Boolean Constraints
c sizeMax=732
c No.0 Divisor=10	generated by pow1
c No.1 Divisor=10	generated by pow1
c No.2 Divisor=10	generated by pow1
c p0= 10	p1= 10	p2= 10	
c number of digits = 4
c linkingVar[0].size = 10, linkingVar[1].size = 10, linkingVar[2].size = 8, linkingVar[3].size = 1, 
c Pseudo-Boolean Constraints: 174625 variables and 1354302 clauses
c Sum of weights = 316982
c A number of soft clauses remained = 9750
c MRWTO encoding for Pseudo-Boolean Constraints
c sizeMax=732
c No.0 Divisor=10	generated by pow1
c No.1 Divisor=10	generated by pow1
c No.2 Divisor=10	generated by pow1
c p0= 10	p1= 10	p2= 10	
c number of digits = 4
c linkingVar[0].size = 10, linkingVar[1].size = 10, linkingVar[2].size = 8, linkingVar[3].size = 1, 
c Pseudo-Boolean Constraints: 174625 variables and 1354302 clauses
c Sum of weights = 316982
c A number of soft clauses remained = 9750
c MRWTO encoding for Pseudo-Boolean Constraints
c sizeMax=732
c No.0 Divisor=10	generated by pow1
c No.1 Divisor=10	generated by pow1
c No.2 Divisor=10	generated by pow1
c p0= 10	p1= 10	p2= 10	
c number of digits = 4
c linkingVar[0].size = 10, linkingVar[1].size = 10, linkingVar[2].size = 8, linkingVar[3].size = 1, 
c Pseudo-Boolean Constraints: 174625 variables and 1354302 clauses
c Sum of weights = 316982
c A number of soft clauses remained = 9750
c MRWTO encoding for Pseudo-Boolean Constraints
c sizeMax=732
c No.0 Divisor=10	generated by pow1
c No.1 Divisor=10	generated by pow1
c No.2 Divisor=10	generated by pow1
c p0= 10	p1= 10	p2= 10	
c number of digits = 4
c linkingVar[0].size = 10, linkingVar[1].size = 10, linkingVar[2].size = 8, linkingVar[3].size = 1, 
c Pseudo-Boolean Constraints: 174625 variables and 1354302 clauses
c Sum of weights = 316982
c A number of soft clauses remained = 9750
c MRWTO encoding for Pseudo-Boolean Constraints
c sizeMax=732
c No.0 Divisor=10	generated by pow1
c No.1 Divisor=10	generated by pow1
c No.2 Divisor=10	generated by pow1
c p0= 10	p1= 10	p2= 10	
c number of digits = 4
c linkingVar[0].size = 10, linkingVar[1].size = 10, linkingVar[2].size = 8, linkingVar[3].size = 1, 
c Pseudo-Boolean Constraints: 174625 variables and 1354302 clauses
c Sum of weights = 316982
c A number of soft clauses remained = 9750
c MRWTO encoding for Pseudo-Boolean Constraints
c sizeMax=732
c No.0 Divisor=10	generated by pow1
c No.1 Divisor=10	generated by pow1
c No.2 Divisor=10	generated by pow1
c p0= 10	p1= 10	p2= 10	
c number of digits = 4
c linkingVar[0].size = 10, linkingVar[1].size = 10, linkingVar[2].size = 8, linkingVar[3].size = 1, 
c Pseudo-Boolean Constraints: 174625 variables and 1354302 clauses
c Sum of weights = 316982
c A number of soft clauses remained = 9750
c MRWTO encoding for Pseudo-Boolean Constraints
c sizeMax=732
c No.0 Divisor=10	generated by pow1
c No.1 Divisor=10	generated by pow1
c No.2 Divisor=10	generated by pow1
c p0= 10	p1= 10	p2= 10	
c number of digits = 4
c linkingVar[0].size = 10, linkingVar[1].size = 10, linkingVar[2].size = 8, linkingVar[3].size = 1, 
c Pseudo-Boolean Constraints: 174625 variables and 1354302 clauses
c Sum of weights = 316982
c A number of soft clauses remained = 9750
c MRWTO encoding for Pseudo-Boolean Constraints
c sizeMax=732
c No.0 Divisor=10	generated by pow1
c No.1 Divisor=10	generated by pow1
c No.2 Divisor=10	generated by pow1
c p0= 10	p1= 10	p2= 10	
c number of digits = 4
c linkingVar[0].size = 10, linkingVar[1].size = 10, linkingVar[2].size = 8, linkingVar[3].size = 1, 
c Pseudo-Boolean Constraints: 174625 variables and 1354302 clauses
c Sum of weights = 316982
c A number of soft clauses remained = 9750
c MRWTO encoding for Pseudo-Boolean Constraints
c sizeMax=732
c No.0 Divisor=10	generated by pow1
c No.1 Divisor=10	generated by pow1
c No.2 Divisor=10	generated by pow1
c p0= 10	p1= 10	p2= 10	
c number of digits = 4
c linkingVar[0].size = 10, linkingVar[1].size = 10, linkingVar[2].size = 8, linkingVar[3].size = 1, 
c Pseudo-Boolean Constraints: 174625 variables and 1354302 clauses
c Sum of weights = 316982
c A number of soft clauses remained = 9750
c MRWTO encoding for Pseudo-Boolean Constraints
c sizeMax=732
c No.0 Divisor=10	generated by pow1
c No.1 Divisor=10	generated by pow1
c No.2 Divisor=10	generated by pow1
c p0= 10	p1= 10	p2= 10	
c number of digits = 4
c linkingVar[0].size = 10, linkingVar[1].size = 10, linkingVar[2].size = 8, linkingVar[3].size = 1, 
c Pseudo-Boolean Constraints: 174625 variables and 1354302 clauses
c Sum of weights = 316982
c A number of soft clauses remained = 9750
c MRWTO encoding for Pseudo-Boolean Constraints
c sizeMax=732
c No.0 Divisor=10	generated by pow1
c No.1 Divisor=10	generated by pow1
c No.2 Divisor=10	generated by pow1
c p0= 10	p1= 10	p2= 10	
c number of digits = 4
c linkingVar[0].size = 10, linkingVar[1].size = 10, linkingVar[2].size = 8, linkingVar[3].size = 1, 
c Pseudo-Boolean Constraints: 174625 variables and 1354302 clauses
c Sum of weights = 316982
c A number of soft clauses remained = 9750
c MRWTO encoding for Pseudo-Boolean Constraints
c sizeMax=732
c No.0 Divisor=10	generated by pow1
c No.1 Divisor=10	generated by pow1
c No.2 Divisor=10	generated by pow1
c p0= 10	p1= 10	p2= 10	
c number of digits = 4
c linkingVar[0].size = 10, linkingVar[1].size = 10, linkingVar[2].size = 8, linkingVar[3].size = 1, 
c Pseudo-Boolean Constraints: 174625 variables and 1354302 clauses
c Sum of weights = 316982
c A number of soft clauses remained = 9750
c MRWTO encoding for Pseudo-Boolean Constraints
c sizeMax=732
c No.0 Divisor=10	generated by pow1
c No.1 Divisor=10	generated by pow1
c No.2 Divisor=10	generated by pow1
c p0= 10	p1= 10	p2= 10	
c number of digits = 4
c linkingVar[0].size = 10, linkingVar[1].size = 10, linkingVar[2].size = 8, linkingVar[3].size = 1, 
c Pseudo-Boolean Constraints: 174625 variables and 1354302 clauses
c Sum of weights = 316982
c A number of soft clauses remained = 9750
c MRWTO encoding for Pseudo-Boolean Constraints
c sizeMax=732
c No.0 Divisor=10	generated by pow1
c No.1 Divisor=10	generated by pow1
c No.2 Divisor=10	generated by pow1
c p0= 10	p1= 10	p2= 10	
c number of digits = 4
c linkingVar[0].size = 10, linkingVar[1].size = 10, linkingVar[2].size = 8, linkingVar[3].size = 1, 
c Pseudo-Boolean Constraints: 174625 variables and 1354302 clauses
c Sum of weights = 316982
c A number of soft clauses remained = 9750
c MRWTO encoding for Pseudo-Boolean Constraints
c sizeMax=732
c No.0 Divisor=10	generated by pow1
c No.1 Divisor=10	generated by pow1
c No.2 Divisor=10	generated by pow1
c p0= 10	p1= 10	p2= 10	
c number of digits = 4
c linkingVar[0].size = 10, linkingVar[1].size = 10, linkingVar[2].size = 8, linkingVar[3].size = 1, 
c Pseudo-Boolean Constraints: 174625 variables and 1354302 clauses
c Sum of weights = 316982
c A number of soft clauses remained = 9750
c MRWTO encoding for Pseudo-Boolean Constraints
c sizeMax=732
c No.0 Divisor=10	generated by pow1
c No.1 Divisor=10	generated by pow1
c No.2 Divisor=10	generated by pow1
c p0= 10	p1= 10	p2= 10	
c number of digits = 4
c linkingVar[0].size = 10, linkingVar[1].size = 10, linkingVar[2].size = 8, linkingVar[3].size = 1, 
c Pseudo-Boolean Constraints: 174625 variables and 1354302 clauses
c last restart ## conflicts  :  239 61992 
o 660 | cpuTime 11.6614 s
c last restart ## conflicts  :  275 54500 
o 489 | cpuTime 24.638 s
c last restart ## conflicts  :  702 109209 
o 245 | cpuTime 39.4059 s
c last restart ## conflicts  :  440 56772 
o 240 | cpuTime 130.324 s
c last restart ## conflicts  :  477 101096 
o 222 | cpuTime 322.307 s
c last restart ## conflicts  :  343 35576 
o 203 | cpuTime 339.665 s
c last restart ## conflicts  :  331 40036 
o 187 | cpuTime 443.729 s
c last restart ## conflicts  :  274 45620 
o 184 | cpuTime 2248.73 s
s UNKNOWN
c Search is stopped by a limit (maybe time-limit)
cr positiVarArr: [ | 46(1->19) | 182(1->52) | 306(1->73) | 393(1->57) | 452(1->13) | 553(1->11) | 649(1->4) | 809(1->61) | 880(1->29) | 1010(1->56) | 1112(1->55) | 1183(1->23) | 1312(1->49) | 1405(1->39) | 1517(1->48) | 1638(1->66) | 1734(1->59) | 1815(1->37) | 1888(1->7) | 1992(1->8) | 2120(1->33) | 2236(1->46) | 2305(1->12) | 2450(1->54) | 2519(1->20) | 2672(1->70) | 2772(1->67) | 2858(1->50) | 2985(2->74) | 3011(3->1) | 3168(4->51) | 3291(5->71) | 3301(6->1) | 3410(7->1) | 3555(8->26) | 3606(9->1) | 3762(10->27) | 3882(11->44) | 3972(12->31) | 4082(13->38) | 4140(14->1) | 4326(15->76) | 4352(16->1) | 4470(17->14) | 4583(18->24) | 4709(19->47) | 4825(20->60) | 4885(21->17) | 4974(22->3) | 5117(23->43) | 5239(24->62) | 5274(25->1) | 5455(26->72) | 5469(27->1) | 5576(28->1) | 5750(29->58) | 5840(30->45) | 5966(31->68) | 5992(32->1) | 6100(33->1) | 6195(34->1) | 6344(35->34) | 6453(36->40) | 6552(37->36) | 6614(38->1) | 6744(39->22) | 6802(40->1) | 6907(41->1) | 7072(42->41) | 7176(43->42) | 7306(44->69) | 7326(45->1) | 7508(46->65) | 7561(47->15) | 7670(48->21) | 7742(49->1) | 7873(50->18) | 7956(51->1) | 8063(52->2) | 8192(53->28) | 8276(54->9) | 8395(55->25) | 8548(56->75) | 8551(57->1) | 8742(58->63) | 8763(59->1) | 8917(60->32) | 8988(61->1) | 9073(62->1) | 9258(63->64) | 9286(64->1) | 9416(65->16) | 9508(66->5) | 9659(67->53) | 9744(68->35) | 9792(69->1) | 9907(70->1) | 10024(71->6) | 10131(72->10) | 10225(73->1) | 10357(74->30) | 10415(75->1) | 10509(76->1) | ]
cr the 1-th chain: [ 1->19->47->15->76->1 ] (#non-depot=4) {#cumul.=5}
cr the 2-th chain: [ 1->52->2->74->30->45->1 ] (#non-depot=5) {#cumul.=10}
cr the 3-th chain: [ 1->73->1 ] (#non-depot=1) {#cumul.=11}
cr the 4-th chain: [ 1->57->1 ] (#non-depot=1) {#cumul.=12}
cr the 5-th chain: [ 1->13->38->1 ] (#non-depot=2) {#cumul.=14}
cr the 6-th chain: [ 1->11->44->69->1 ] (#non-depot=3) {#cumul.=17}
cr the 7-th chain: [ 1->4->51->1 ] (#non-depot=2) {#cumul.=19}
cr the 8-th chain: [ 1->61->1 ] (#non-depot=1) {#cumul.=20}
cr the 9-th chain: [ 1->29->58->63->64->1 ] (#non-depot=4) {#cumul.=24}
cr the 10-th chain: [ 1->56->75->1 ] (#non-depot=2) {#cumul.=26}
cr the 11-th chain: [ 1->55->25->1 ] (#non-depot=2) {#cumul.=28}
cr the 12-th chain: [ 1->23->43->42->41->1 ] (#non-depot=4) {#cumul.=32}
cr the 13-th chain: [ 1->49->1 ] (#non-depot=1) {#cumul.=33}
cr the 14-th chain: [ 1->39->22->3->1 ] (#non-depot=3) {#cumul.=36}
cr the 15-th chain: [ 1->48->21->17->14->1 ] (#non-depot=4) {#cumul.=40}
cr the 16-th chain: [ 1->66->5->71->6->1 ] (#non-depot=4) {#cumul.=44}
cr the 17-th chain: [ 1->59->1 ] (#non-depot=1) {#cumul.=45}
cr the 18-th chain: [ 1->37->36->40->1 ] (#non-depot=3) {#cumul.=48}
cr the 19-th chain: [ 1->7->1 ] (#non-depot=1) {#cumul.=49}
cr the 20-th chain: [ 1->8->26->72->10->27->1 ] (#non-depot=5) {#cumul.=54}
cr the 21-th chain: [ 1->33->1 ] (#non-depot=1) {#cumul.=55}
cr the 22-th chain: [ 1->46->65->16->1 ] (#non-depot=3) {#cumul.=58}
cr the 23-th chain: [ 1->12->31->68->35->34->1 ] (#non-depot=5) {#cumul.=63}
cr the 24-th chain: [ 1->54->9->1 ] (#non-depot=2) {#cumul.=65}
cr the 25-th chain: [ 1->20->60->32->1 ] (#non-depot=3) {#cumul.=68}
cr the 26-th chain: [ 1->70->1 ] (#non-depot=1) {#cumul.=69}
cr the 27-th chain: [ 1->67->53->28->1 ] (#non-depot=3) {#cumul.=72}
cr the 28-th chain: [ 1->50->18->24->62->1 ] (#non-depot=4) {#cumul.=76}
c Latest Answer = 0 by 9 loops
c restarts              : 15152
c conflicts             : 2325650        (647 /sec)
c decisions             : 159099349      (0.00 % random) (44236 /sec)
c propagations          : 34835503094    (9685749 /sec)
c conflict literals     : 430731617      (26.34 % deleted)
c Memory used           : 4767.00 MB
c CPU time              : 3596.57 s
